<number of tasks>
30

<cycle time>
30

<task times>
1 8
2 7
3 19
4 10
5 2
6 6
7 14
8 10
9 1
10 4
11 14
12 15
13 5
14 12
15 9
16 10
17 2
18 10
19 18
20 16
21 21
22 14
23 16
24 7
25 17
26 9
27 25
28 7
29 14
30 2

<precedence relations>
1,4
1,5
2,11
2,12
3,16
3,17
4,7
5,6
6,7
7,8
8,9
9,26
10,24
12,13
13,14
14,15
14,20
15,22
16,20
17,18
18,19
20,21
20,24
21,22
22,23
23,27
24,25
25,26
26,27
27,28
27,29
29,30

<setup times forward>
1,4:1
1,14:1
1,15:1
1,19:1
1,21:1
1,22:1
2,4:1
2,6:1
2,8:1
2,19:1
3,4:1
3,6:1
3,8:1
3,14:1
3,15:1
4,2:1
4,3:1
4,5:1
4,7:1
4,10:1
4,11:1
4,12:1
4,13:1
4,16:1
4,17:1
4,18:1
4,20:1
4,23:1
4,24:1
4,25:1
5,4:1
5,6:1
5,14:1
5,15:1
5,19:1
5,21:1
5,22:1
6,2:1
6,3:1
6,7:1
6,10:1
6,11:1
6,12:1
6,13:1
6,16:1
6,17:1
6,18:1
6,20:1
6,23:1
6,24:1
6,25:1
7,8:1
7,14:1
7,15:1
7,19:1
7,21:1
7,22:1
8,2:1
8,3:1
8,9:1
8,10:1
8,11:1
8,12:1
8,13:1
8,16:1
8,17:1
8,18:1
8,20:1
8,23:1
8,24:1
8,25:1
9,14:1
9,15:1
9,19:1
9,21:1
9,22:1
10,4:1
10,6:1
10,8:1
10,14:1
10,15:1
10,19:1
10,21:1
10,22:1
11,4:1
11,6:1
11,8:1
11,14:1
11,15:1
11,19:1
11,21:1
11,22:1
11,27:1
11,28:1
12,4:1
12,6:1
12,8:1
12,19:1
13,4:1
13,6:1
13,8:1
13,14:1
13,19:1
14,1:1
14,3:1
14,5:1
14,7:1
14,9:1
14,10:1
14,11:1
14,16:1
14,17:1
14,18:1
14,20:1
15,1:1
15,3:1
15,5:1
15,7:1
15,9:1
15,10:1
15,11:1
15,16:1
15,17:1
15,18:1
15,20:1
15,24:1
15,25:1
15,26:1
16,4:1
16,6:1
16,8:1
16,14:1
16,15:1
16,19:1
17,4:1
17,6:1
17,8:1
17,14:1
17,15:1
17,21:1
17,22:1
17,27:1
17,28:1
18,4:1
18,6:1
18,8:1
18,14:1
18,15:1
18,19:1
18,21:1
18,22:1
18,27:1
18,28:1
19,1:1
19,2:1
19,5:1
19,7:1
19,9:1
19,10:1
19,11:1
19,12:1
19,13:1
19,16:1
19,20:1
19,23:1
19,24:1
19,25:1
19,26:1
19,29:1
19,30:1
20,4:1
20,6:1
20,8:1
20,15:1
20,19:1
20,21:1
21,1:1
21,5:1
21,7:1
21,9:1
21,10:1
21,11:1
21,17:1
21,18:1
21,24:1
21,25:1
21,26:1
22,1:1
22,5:1
22,7:1
22,9:1
22,10:1
22,11:1
22,17:1
22,18:1
22,23:1
22,24:1
22,25:1
22,26:1
23,4:1
23,6:1
23,8:1
23,19:1
23,27:1
24,4:1
24,6:1
24,8:1
24,15:1
24,19:1
24,21:1
24,22:1
25,4:1
25,6:1
25,8:1
25,15:1
25,19:1
25,21:1
25,22:1
26,15:1
26,19:1
26,21:1
26,22:1
26,27:1
27,11:1
27,17:1
27,18:1
27,29:1
28,11:1
28,17:1
28,18:1
28,29:1
28,30:1
29,19:1
29,28:1
30,19:1
30,28:1

<setup times backward>
1,14:1
1,15:1
1,19:1
1,21:1
1,22:1
2,4:1
2,6:1
2,8:1
2,19:1
3,4:1
3,6:1
3,8:1
3,14:1
3,15:1
5,4:1
5,14:1
5,15:1
5,19:1
5,21:1
5,22:1
7,4:1
7,6:1
7,14:1
7,15:1
7,19:1
7,21:1
7,22:1
9,4:1
9,6:1
9,8:1
9,14:1
9,15:1
9,19:1
9,21:1
9,22:1
10,4:1
10,6:1
10,8:1
10,14:1
10,15:1
10,19:1
10,21:1
10,22:1
11,4:1
11,6:1
11,8:1
11,14:1
11,15:1
11,19:1
11,21:1
11,22:1
11,27:1
11,28:1
12,4:1
12,6:1
12,8:1
12,19:1
13,4:1
13,6:1
13,8:1
13,19:1
16,4:1
16,6:1
16,8:1
16,14:1
16,15:1
16,19:1
17,4:1
17,6:1
17,8:1
17,14:1
17,15:1
17,21:1
17,22:1
17,27:1
17,28:1
18,4:1
18,6:1
18,8:1
18,14:1
18,15:1
18,21:1
18,22:1
18,27:1
18,28:1
20,4:1
20,6:1
20,8:1
20,14:1
20,15:1
20,19:1
23,4:1
23,6:1
23,8:1
23,14:1
23,15:1
23,19:1
23,21:1
23,22:1
24,4:1
24,6:1
24,8:1
24,14:1
24,15:1
24,19:1
24,21:1
24,22:1
25,4:1
25,6:1
25,8:1
25,14:1
25,15:1
25,19:1
25,21:1
25,22:1
26,4:1
26,6:1
26,8:1
26,14:1
26,15:1
26,19:1
26,21:1
26,22:1
29,4:1
29,6:1
29,8:1
29,14:1
29,15:1
29,19:1
29,21:1
29,22:1
29,27:1
29,28:1
30,4:1
30,6:1
30,8:1
30,14:1
30,15:1
30,19:1
30,21:1
30,22:1
30,27:1
30,28:1

<end>

<optimal SALBP-1 value>
12


<rand seed>
467321153

<Lower Bounds>
Lm1=11
Lms1=11
Lm2=8
Lm3=9
Lm4=11
Best=11

<Optimal Stations (Iterations: 10)>
14
